85
120
45
200
30
150
75
110
95
180
25
60
135
220
40
165
88
125
55
190
70
145
100
210
35
155
80
115
50
175
65
140
90
205
45
160
75
130
55
185
70
150
95
215
40
170
85
120
60
195
75
145
100
225
50
165
80
135
65
200
90
155
105
230
45
175
70
140
85
210
55
160
95
185
75
150
100
220
60
170
80
145
90
205
65
155
85
190
70
135
95
215
50
165
80
150
75
195
90
180